1
1000
501
498 1
498 1
497 1
497 1
496 1
492 1
490 1
489 1
489 1
488 1
486 1
485 1
485 1
485 1
484 1
484 1
483 1
482 1
481 1
481 1
478 1
477 1
476 1
474 1
474 1
473 1
472 1
472 1
472 1
472 1
471 1
470 1
469 1
469 1
468 1
467 1
467 1
466 1
463 1
463 1
462 1
462 1
461 1
460 1
460 1
459 1
459 1
458 1
457 1
456 1
455 1
454 1
454 1
453 1
453 1
452 1
450 1
449 1
448 1
447 1
447 1
446 1
446 1
444 1
442 1
441 1
440 1
439 1
438 1
437 1
437 1
437 1
436 1
435 1
434 1
432 1
432 1
431 1
431 1
430 1
429 1
429 1
429 1
426 1
426 1
422 1
420 1
420 1
419 1
418 1
418 1
417 1
417 1
417 1
417 1
417 1
417 1
417 1
416 1
415 1
413 1
413 1
412 1
412 1
411 1
411 1
407 1
406 1
406 1
404 1
404 1
403 1
402 1
401 1
400 1
400 1
396 1
396 1
395 1
395 1
392 1
392 1
392 1
390 1
390 1
387 1
387 1
387 1
386 1
384 1
384 1
383 1
383 1
383 1
382 1
382 1
382 1
381 1
381 1
380 1
380 1
379 1
379 1
378 1
377 1
377 1
376 1
376 1
374 1
373 1
372 1
372 1
371 1
370 1
370 1
370 1
370 1
369 1
368 1
368 1
367 1
366 1
366 1
366 1
364 1
364 1
363 1
362 1
361 1
361 1
360 1
360 1
360 1
360 1
357 1
357 1
357 1
356 1
356 1
356 1
355 1
355 1
353 1
352 1
352 1
351 1
351 1
350 1
350 1
350 1
350 1
345 1
341 1
340 1
338 1
338 1
335 1
335 1
334 1
334 1
333 1
333 1
333 1
332 1
332 1
332 1
331 1
331 1
331 1
330 1
329 1
328 1
327 1
327 1
326 1
325 1
324 1
324 1
324 1
323 1
322 1
322 1
321 1
320 1
318 1
318 1
318 1
317 1
316 1
316 1
315 1
315 1
315 1
314 1
314 1
314 1
313 1
313 1
312 1
312 1
312 1
312 1
312 1
312 1
312 1
310 1
310 1
309 1
308 1
307 1
307 1
307 1
306 1
306 1
305 1
305 1
305 1
305 1
305 1
305 1
304 1
303 1
303 1
302 1
300 1
300 1
299 1
299 1
299 1
299 1
298 1
298 1
297 1
297 1
297 1
296 1
296 1
296 1
296 1
295 1
295 1
294 1
294 1
294 1
294 1
294 1
293 1
292 1
292 1
291 1
291 1
291 1
290 1
290 1
290 1
289 1
289 1
289 1
289 1
289 1
289 1
288 1
288 1
288 1
288 1
288 1
287 1
286 1
286 1
285 1
285 1
285 1
284 1
284 1
284 1
284 1
284 1
284 1
283 1
283 1
283 1
282 1
282 1
282 1
280 1
280 1
280 1
280 1
280 1
280 1
279 1
279 1
279 1
278 1
278 1
278 1
278 1
278 1
277 1
277 1
277 1
277 1
277 1
277 1
276 1
276 1
276 1
276 1
276 1
275 1
275 1
274 1
274 1
274 1
273 1
273 1
273 1
273 1
272 1
272 1
272 1
272 1
271 1
271 1
271 1
270 1
270 1
270 1
269 1
269 1
269 1
268 1
268 1
268 1
268 1
267 1
267 1
267 1
267 1
267 1
266 1
266 1
266 1
266 1
265 1
265 1
265 1
265 1
265 1
265 1
264 1
264 1
264 1
264 1
264 1
263 1
263 1
263 1
263 1
263 1
263 1
262 1
262 1
262 1
261 1
261 1
261 1
261 1
261 1
261 1
261 1
261 1
261 1
261 1
260 1
260 1
260 1
260 1
260 1
260 1
260 1
260 1
260 1
259 1
259 1
259 1
259 1
259 1
259 1
259 1
259 1
259 1
258 1
258 1
258 1
257 1
257 1
257 1
257 1
257 1
257 1
257 1
257 1
257 1
256 1
256 1
256 1
256 1
256 1
256 1
256 1
255 1
255 1
255 1
255 1
254 1
254 1
254 1
254 1
254 1
254 1
254 1
254 1
254 1
254 1
253 1
253 1
253 1
253 1
253 1
253 1
253 1
253 1
253 1
253 1
252 1
252 1
252 1
252 1
252 1
252 1
252 1
252 1
252 1
252 1
251 1
251 1
251 1
250 1
250 1
250 1
250 1
250 1
250 1
250 1
250 1
250 1
250 1
250 1
250 1
250 1
